
  22   10
  10   10   10   10   10   10   10   10   10   10

   0   0   0   0   0   0   0   0   0   0   0   2 2 6 
   5   0  10   0   0   0   0   0   0   0   0   1 3 
   2   0   0   0  10   0   0   0   0   0   0   1 4 
   8   0   0   0  10   0   0   0   0   0   0   1 5 
   7   0   0   0   0   0   0   0  10   0   0   1 7 
   4   0   0  10   0   0   0   0   0   0   0   1 7 
   8   0   0   0   0   0  10   0   0   0   0   1 8 
   3   0   0   0   0  10   0   0   0   0   0   1 9 
   5   0   0   0   0   0  10   0   0   0   0   2 12 10 
   7   0   0   0   0   0  10   0   0   0   0   2 13 11 
  10   0   0   0   0   0  10   0   0   0   0   1 14 
   7   0  10   0   0   0   0   0   0   0   0   1 13 
  10   0   0  10   0   0   0   0   0   0   0   2 18 15 
   5   0   0   0   0   0   0   0   0  10   0   2 18 15 
   9   0  10   0   0   0   0   0   0   0   0   1 16 
   2   0  10   0   0   0   0   0   0   0   0   2 19 17 
   6   0   0   0   0   0  10   0   0   0   0   2 21 20 
  10   0   0  10   0   0   0   0   0   0   0   2 21 20 
   5   0   0   0   0   0   0   0   0   0  10   1 20 
   4   0  10   0   0   0   0   0   0   0   0   1 22
   2   0  10   0   0   0   0   0   0   0   0   1 22
   0   0   0   0   0   0   0   0   0   0   0   0 
